c read Graph
c width = 99
c time = 75 ms
c width = 9
c time = 118 ms
c width = 8
c time = 148 ms
c width = 7
c time = 3073 ms
c width = 7
c time = 5015 ms
s td 105 8 112
b 1 1 2 17
b 2 2 3 17 18
b 3 14 15 31 32
b 4 3 17 18 33
b 5 14 31 32 48
b 6 65 81 82 98
b 7 80 95 96 111
b 8 65 82 98 99
b 9 80 95 110 111
b 10 3 4 18 19 33
b 11 4 5 18 19 20 33
b 12 5 6 18 19 20 21 33
b 13 6 7 18 19 20 21 22 33
b 14 7 18 19 20 21 22 33 34
b 15 7 19 20 21 22 33 34 35
b 16 7 20 21 22 33 34 35 36
b 17 7 21 22 33 34 35 36 37
b 18 7 22 33 34 35 36 37 49
b 19 7 22 34 35 36 37 49 50
b 20 7 22 35 36 37 49 50 51
b 21 7 22 36 37 49 50 51 52
b 22 7 22 37 49 50 51 52 65
b 23 7 22 37 50 51 52 65 66
b 24 7 22 37 51 52 65 66 67
b 25 7 22 37 52 65 66 67 82
b 26 7 22 37 52 65 67 82 99
b 27 7 22 37 52 67 82 83 99
b 28 7 22 37 52 67 68 83 99
b 29 7 22 37 52 53 68 83 99
b 30 7 22 37 38 53 68 83 99
b 31 7 22 23 38 53 68 83 99
b 32 7 8 23 38 53 68 83 99
b 33 8 23 38 53 68 83 84 99
b 34 8 23 38 53 68 69 84 99
b 35 8 23 38 53 54 69 84 99
b 36 8 23 38 39 54 69 84 99
b 37 8 23 24 39 54 69 84 99
b 38 8 9 24 39 54 69 84 99
b 39 9 24 39 54 69 84 99 100
b 40 9 24 39 54 69 84 85 100
b 41 9 24 39 54 69 70 85 100
b 42 9 24 39 54 55 70 85 100
b 43 9 24 39 40 55 70 85 100
b 44 9 24 25 40 55 70 85 100
b 45 9 25 40 55 70 85 100 101
b 46 9 25 40 55 70 85 86 101
b 47 9 25 40 55 70 71 86 101
b 48 9 25 40 55 56 71 86 101
b 49 9 25 40 41 56 71 86 101
b 50 9 25 26 41 56 71 86 101
b 51 9 11 26 41 56 71 86 101
b 52 11 26 41 56 71 86 101 102
b 53 11 26 41 56 71 86 87 102
b 54 11 26 41 56 71 72 87 102
b 55 11 26 41 56 57 72 87 102
b 56 11 26 41 42 57 72 87 102
b 57 11 26 42 57 72 87 102 103
b 58 11 26 42 57 72 87 88 103
b 59 11 26 42 57 72 73 88 103
b 60 11 26 42 57 58 73 88 103
b 61 11 26 42 43 58 73 88 103
b 62 11 26 28 43 58 73 88 103
b 63 11 12 28 43 58 73 88 103
b 64 12 13 28 43 58 73 88 103
b 65 13 28 43 58 73 88 103 104
b 66 13 28 43 58 73 88 89 104
b 67 13 28 43 58 73 74 89 104
b 68 13 28 43 58 59 74 89 104
b 69 13 28 43 59 74 89 104 105
b 70 13 28 43 59 74 89 90 105
b 71 13 28 43 59 74 75 90 105
b 72 13 28 43 59 60 75 90 105
b 73 13 28 43 45 60 75 90 105
b 74 13 28 30 45 60 75 90 105
b 75 13 30 45 60 75 90 105 106
b 76 13 30 45 60 75 90 91 106
b 77 13 30 45 60 75 91 106 108
b 78 13 30 45 60 75 91 92 108
b 79 13 30 45 60 75 77 92 108
b 80 13 30 45 60 62 77 92 108
b 81 13 30 45 47 62 77 92 108
b 82 13 30 47 62 64 77 92 108
b 83 47 62 64 77 79 92 108
b 84 62 64 77 79 92 94 108
b 85 62 77 78 79 94
b 86 64 77 79 92 94 108 110
b 87 77 92 93 94 108 110
b 88 93 108 109 110
b 89 64 79 80 94 110
b 90 79 80 94 95 110
b 91 13 30 47 48 64
b 92 13 14 30 47 48
b 93 14 30 31 47 48
b 94 30 45 46 47 62
b 95 13 28 29 30 45
b 96 47 62 63 64 79
b 97 45 60 61 62 77
b 98 60 75 76 77 92
b 99 91 106 107 108
b 100 11 26 27 28 43
b 101 28 43 44 45 60
b 102 9 10 11 26
b 103 96 111 112
b 104 81 97 98
b 105 15 16 32
1 2
2 4
3 105
3 5
4 10
5 93
6 104
6 8
7 103
7 9
8 26
9 90
10 11
11 12
12 13
13 14
14 15
15 16
16 17
17 18
18 19
19 20
20 21
21 22
22 23
23 24
24 25
25 26
26 27
27 28
28 29
29 30
30 31
31 32
32 33
33 34
34 35
35 36
36 37
37 38
38 39
39 40
40 41
41 42
42 43
43 44
44 45
45 46
46 47
47 48
48 49
49 50
50 51
51 102
51 52
52 53
53 54
54 55
55 56
56 57
57 58
58 59
59 60
60 61
61 62
62 100
62 63
63 64
64 65
65 66
66 67
67 68
68 69
69 70
70 71
71 72
72 73
73 101
73 74
74 95
74 75
75 76
76 77
77 99
77 78
78 79
79 98
79 80
80 97
80 81
81 94
81 82
82 91
82 83
83 96
83 84
84 85
84 86
86 89
86 87
87 88
89 90
91 92
92 93
